qbf_easy_train/easy_2427_SAT.qdimacs
p cnf 34 92
a 9 2 17 0
e 1 3 4 5 6 7 8 10 11 12 13 14 15 16 18 19 20 21 22 23 24 25 26 27 28 29 30 31 32 33 34 0
-1 2 -3 0
1 -2 -3 0
-1 -2 3 0
1 2 3 0
4 -3 0
4 2 0
3 -2 -4 0
1 5 -6 0
-1 -5 -6 0
1 -5 6 0
-1 5 6 0
8 -7 0
8 1 0
7 -1 -8 0
-5 8 -9 0
5 -8 -9 0
-5 -8 9 0
5 8 9 0
-10 9 0
-10 1 0
-9 -1 10 0
-11 -6 0
-11 -10 0
6 10 11 0
-12 4 0
-12 11 0
-4 -11 12 0
14 -2 -15 0
-14 2 -15 0
14 2 15 0
-14 -2 15 0
-15 -16 -17 0
15 16 -17 0
-15 16 17 0
15 -16 17 0
-18 -13 0
-18 17 0
13 -17 18 0
19 16 0
19 5 0
-16 -5 -19 0
-20 -19 0
-20 -14 0
19 14 20 0
-21 -18 0
-21 20 0
18 -20 21 0
-22 12 0
-22 21 0
-12 -21 22 0
23 9 0
23 -14 0
-9 14 -23 0
24 -15 0
24 15 0
23 -24 -25 0
-23 24 -25 0
23 24 25 0
-23 -24 25 0
26 22 0
26 25 0
-22 -25 -26 0
27 -14 0
27 15 0
14 -15 -27 0
27 7 -28 0
-27 -7 -28 0
27 -7 28 0
-27 7 28 0
-6 -29 0
6 -29 0
31 30 0
31 27 0
-30 -27 -31 0
-32 -29 0
-32 -31 0
29 31 32 0
33 -28 0
33 -32 0
28 32 -33 0
-34 26 0
-34 -33 0
-26 33 34 0
-26 -6 8 -3 -22 34 0
-14 28 -3 0
7 -31 -3 -8 9 -30 -33 0
-27 17 -32 0
9 31 -25 0
-30 -27 32 -17 29 -34 0
-2 -5 9 13 0
-16 -8 -2 -14 -1 28 0
34 0
