sat_easy_train/easy_2427_SAT.dimacs
p cnf 89 277
-1 -2 -3 0
1 2 -3 0
-1 2 3 0
1 -2 3 0
-4 5 0
4 5 0
-6 -3 0
-6 -5 0
3 5 6 0
9 -7 0
9 -8 0
7 8 -9 0
9 -10 -11 0
-9 10 -11 0
9 10 11 0
-9 -10 11 0
12 -11 0
12 -2 0
11 2 -12 0
13 6 0
13 -12 0
-6 12 -13 0
14 9 0
14 -8 0
-9 8 -14 0
-15 -4 0
-15 14 0
4 -14 15 0
-16 -13 0
-16 15 0
13 -15 16 0
-18 17 0
-18 2 0
-17 -2 18 0
-19 -2 0
-19 -18 0
2 18 19 0
20 -7 -21 0
-20 7 -21 0
20 7 21 0
-20 -7 21 0
-21 22 0
21 22 0
-19 -22 -23 0
19 22 -23 0
-19 22 23 0
19 -22 23 0
-24 16 0
-24 -23 0
-16 23 24 0
26 7 0
26 25 0
-7 -25 -26 0
-26 -3 -27 0
26 3 -27 0
-26 3 27 0
26 -3 27 0
28 4 0
28 -21 0
-4 21 -28 0
30 -26 0
30 -29 0
26 29 -30 0
31 28 0
31 30 0
-28 -30 -31 0
32 -31 0
32 5 0
31 -5 -32 0
33 -19 0
33 32 0
19 -32 -33 0
27 -33 -34 0
-27 33 -34 0
27 33 34 0
-27 -33 34 0
-35 25 0
-35 28 0
-25 -28 35 0
36 35 0
36 6 0
-35 -6 -36 0
37 34 0
37 -36 0
-34 36 -37 0
-24 -37 -38 0
24 37 -38 0
-24 37 38 0
24 -37 38 0
-39 -17 0
-39 -21 0
17 21 39 0
41 40 0
41 29 0
-40 -29 -41 0
42 -39 0
42 41 0
39 -41 -42 0
-43 7 -44 0
43 -7 -44 0
-43 -7 44 0
43 7 44 0
45 29 0
45 35 0
-29 -35 -45 0
46 -44 0
46 45 0
44 -45 -46 0
-47 45 0
-47 -30 0
-45 30 47 0
48 -46 0
48 47 0
46 -47 -48 0
-49 42 0
-49 48 0
-42 -48 49 0
38 49 -50 0
-38 -49 -50 0
38 -49 50 0
-38 49 50 0
-51 -17 0
-51 10 0
17 -10 51 0
-53 51 0
-53 -52 0
-51 52 53 0
28 -53 -54 0
-28 53 -54 0
28 53 54 0
-28 -53 54 0
54 10 -55 0
-54 -10 -55 0
54 -10 55 0
-54 10 55 0
-57 28 0
-57 -52 0
-28 52 57 0
-58 56 0
-58 57 0
-56 -57 58 0
-59 -26 0
-59 -52 0
26 52 59 0
52 -7 -60 0
-52 7 -60 0
52 7 60 0
-52 -7 60 0
-61 21 0
-61 -60 0
-21 60 61 0
-62 -59 0
-62 61 0
59 -61 62 0
58 -62 -63 0
-58 62 -63 0
58 62 63 0
-58 -62 63 0
-64 55 0
-64 63 0
-55 -63 64 0
50 -64 -65 0
-50 64 -65 0
50 64 65 0
-50 -64 65 0
-6 51 -66 0
6 -51 -66 0
-6 -51 66 0
6 51 66 0
67 -52 0
67 54 0
52 -54 -67 0
-68 43 0
-68 2 0
-43 -2 68 0
69 20 0
69 28 0
-20 -28 -69 0
70 -68 0
70 -69 0
68 69 -70 0
67 70 -71 0
-67 -70 -71 0
67 -70 71 0
-67 70 71 0
-66 -71 -72 0
66 71 -72 0
-66 71 72 0
66 -71 72 0
73 6 0
73 -28 0
-6 28 -73 0
22 74 -75 0
-22 -74 -75 0
22 -74 75 0
-22 74 75 0
76 -73 0
76 -75 0
73 75 -76 0
78 -77 0
78 26 0
77 -26 -78 0
76 -78 -79 0
-76 78 -79 0
76 78 79 0
-76 -78 79 0
-17 25 -80 0
17 -25 -80 0
-17 -25 80 0
17 25 80 0
25 80 -81 0
-25 -80 -81 0
25 -80 81 0
-25 80 81 0
79 81 -82 0
-79 -81 -82 0
79 -81 82 0
-79 81 82 0
-83 -72 0
-83 -82 0
72 82 83 0
-84 -32 0
-84 -3 0
32 3 84 0
85 -43 0
85 -84 0
43 84 -85 0
53 84 -86 0
-53 -84 -86 0
53 -84 86 0
-53 84 86 0
-87 85 0
-87 86 0
-85 -86 87 0
-88 -83 0
-88 87 0
83 -87 88 0
-89 65 0
-89 88 0
-65 -88 89 0
-28 -88 -56 48 0
66 -65 0
-39 -88 32 61 0
35 86 -34 23 0
3 45 0
-29 13 -9 -68 33 20 0
42 -4 83 -51 0
44 -69 1 0
17 -67 -81 0
-70 -42 0
79 86 -60 55 -12 0
15 -12 -53 56 0
74 39 -13 -46 81 -10 0
3 -57 -81 -50 0
-20 -79 35 0
-32 56 -89 0
-50 21 -58 0
36 20 39 0
12 -85 -39 40 0
43 -66 -70 83 64 0
-65 -78 -16 0
48 25 -81 -74 59 -63 0
-5 24 74 43 0
34 39 0
-85 40 -89 78 -34 -76 0
67 40 0
49 41 -25 0
-20 -57 47 71 0
-75 -38 0
-30 -31 0
49 -7 -44 -53 -71 15 0
4 -66 -29 -67 0
26 -68 25 -24 -30 0
-53 34 -32 75 0
-39 21 81 -41 -25 0
-10 34 -33 -81 0
89 0
